(declare-const __VERIFIER_assert__cond___7 Int)
(declare-const |K:158:159:166:335:459:971| Int)
(declare-const |havoc:24:60:273:332:900:988| Int)
(declare-const |phi___tmp_247_0:350:451:963| Int)
(declare-const __VERIFIER_assert__cond___16 Int)
(declare-const |K:313:314:323:891:979| Int)
(declare-const |phi___tmp_383_0:351:450:962| Int)
(declare-const havoc Int)
(declare-const |main____CPAchecker_TMP_0___0':142:165:172:341:465:977| Int)
(declare-const |__VERIFIER_assert__cond___15':143:161:168:337:461:973| Int)
(declare-const __VERIFIER_assert__cond___8 Int)
(declare-const |phi___VERIFIER_assert__cond___12:346:455:967| Int)
(declare-const |main____CPAchecker_TMP_4':296:321:330:898:986| Int)
(declare-const |main____CPAchecker_TMP_6':301:318:327:895:983| Int)
(declare-const |phi_main____CPAchecker_TMP_0:348:453:965| Int)
(declare-const |phi_main____CPAchecker_TMP_0___0:345:456:968| Int)
(declare-const |main__t':140:160:167:336:460:972| Int)
(declare-const main____CPAchecker_TMP_6 Int)
(declare-const main____CPAchecker_TMP_4 Int)
(declare-const |main____CPAchecker_TMP_0':141:162:169:338:462:974| Int)
(declare-const |phi___VERIFIER_assert__cond___16:343:458:970| Int)
(declare-const |phi___VERIFIER_assert__cond___11:347:454:966| Int)
(declare-const __VERIFIER_assert__cond___3 Int)
(declare-const |havoc:3:58:961| Int)
(declare-const |main__t':140:317:326:894:982| Int)
(declare-const |__VERIFIER_assert__cond___3':297:320:329:897:985| Int)
(declare-const main____CPAchecker_TMP_3 Int)
(declare-const |__VERIFIER_assert__cond___8':300:316:325:893:981| Int)
(declare-const |__tmp_383_0':139:163:170:339:463:975| Int)
(declare-const |__VERIFIER_assert__cond___7':299:315:324:892:980| Int)
(declare-const __VERIFIER_assert__cond___11 Int)
(declare-const |phi___VERIFIER_assert__cond___15:344:457:969| Int)
(declare-const __VERIFIER_assert__cond___12 Int)
(declare-const __tmp_383_0 Int)
(declare-const __VERIFIER_assert__cond___4 Int)
(declare-const |__VERIFIER_assert__cond___16':144:164:171:340:464:976| Int)
(declare-const |havoc:9:59:138:334:342:466:978| Int)
(declare-const |__VERIFIER_assert__cond___4':298:319:328:896:984| Int)
(declare-const |main____CPAchecker_TMP_3':295:322:331:899:987| Int)
(declare-const main____CPAchecker_TMP_0___0 Int)
(declare-const __VERIFIER_assert__cond___15 Int)
(declare-const |phi_main__t:349:452:964| Int)
(declare-const |havoc:31:62:722:901:989| Int)
(assert (and (<= (+ (- havoc) 1) 0) (not (= (+ (- havoc) 1) 0))
               (or (and (not (= |havoc:3:58:961| 0))
                          (= (+ (- |phi___tmp_383_0:351:450:962|) __tmp_383_0) 0)
                          (= (+ (- |phi___tmp_247_0:350:451:963|)
                                  |havoc:3:58:961|) 0)
                          (= (- |phi_main__t:349:452:964|) 0)
                          (= (+ (- |phi_main____CPAchecker_TMP_0:348:453:965|)
                                  |havoc:3:58:961|) 0)
                          (= (+ (- |phi___VERIFIER_assert__cond___11:347:454:966|)
                                  __VERIFIER_assert__cond___11) 0)
                          (= (+ (- |phi___VERIFIER_assert__cond___12:346:455:967|)
                                  __VERIFIER_assert__cond___12) 0)
                          (= (+ (- |phi_main____CPAchecker_TMP_0___0:345:456:968|)
                                  main____CPAchecker_TMP_0___0) 0)
                          (= (+ (- |phi___VERIFIER_assert__cond___15:344:457:969|)
                                  __VERIFIER_assert__cond___15) 0)
                          (= (+ (- |phi___VERIFIER_assert__cond___16:343:458:970|)
                                  __VERIFIER_assert__cond___16) 0))
                     (and (= |havoc:3:58:961| 0)
                            (not (= (ite (<= (+ (- havoc) 1) 0) 1 0) 0))
                            (or (not (<= (- |K:158:159:166:335:459:971|) 0))
                                  (= (+ |main__t':140:160:167:336:460:972|
                                          (- |K:158:159:166:335:459:971|)) 0))
                            (or (not (and (<= (- |K:158:159:166:335:459:971|) 0)
                                            (<= |K:158:159:166:335:459:971| 0)))
                                  (= (+ |__VERIFIER_assert__cond___15':143:161:168:337:461:973|
                                          (- __VERIFIER_assert__cond___15)) 0))
                            (or (not (<= (+ (- |K:158:159:166:335:459:971|) 1) 0))
                                  (= (+ |__VERIFIER_assert__cond___15':143:161:168:337:461:973|
                                          -1) 0))
                            (or (not (and (<= (- |K:158:159:166:335:459:971|) 0)
                                            (<= |K:158:159:166:335:459:971| 0)))
                                  (= (+ |main____CPAchecker_TMP_0':141:162:169:338:462:974|
                                          (- |havoc:3:58:961|)) 0))
                            (or (not (<= (+ (- |K:158:159:166:335:459:971|) 1) 0))
                                  (= |main____CPAchecker_TMP_0':141:162:169:338:462:974| 0))
                            (or (not (and (<= (- |K:158:159:166:335:459:971|) 0)
                                            (<= |K:158:159:166:335:459:971| 0)))
                                  (= (+ |__tmp_383_0':139:163:170:339:463:975|
                                          (- |havoc:3:58:961|)) 0))
                            (or (not (<= (+ (- |K:158:159:166:335:459:971|) 1) 0))
                                  (= |__tmp_383_0':139:163:170:339:463:975| 0))
                            (or (not (and (<= (- |K:158:159:166:335:459:971|) 0)
                                            (<= |K:158:159:166:335:459:971| 0)))
                                  (= (+ |__VERIFIER_assert__cond___16':144:164:171:340:464:976|
                                          (- __VERIFIER_assert__cond___16)) 0))
                            (or (not (<= (+ (- |K:158:159:166:335:459:971|) 1) 0))
                                  (= (+ |__VERIFIER_assert__cond___16':144:164:171:340:464:976|
                                          -1) 0))
                            (or (not (and (<= (- |K:158:159:166:335:459:971|) 0)
                                            (<= |K:158:159:166:335:459:971| 0)))
                                  (= (+ |main____CPAchecker_TMP_0___0':142:165:172:341:465:977|
                                          (- main____CPAchecker_TMP_0___0)) 0))
                            (or (not (<= (+ (- |K:158:159:166:335:459:971|) 1) 0))
                                  (= |main____CPAchecker_TMP_0___0':142:165:172:341:465:977| 0))
                            (or (and (= |K:158:159:166:335:459:971| 0)
                                       (= (+ (- |__VERIFIER_assert__cond___16':144:164:171:340:464:976|)
                                               __VERIFIER_assert__cond___16) 0)
                                       (= (+ (- |__VERIFIER_assert__cond___15':143:161:168:337:461:973|)
                                               __VERIFIER_assert__cond___15) 0)
                                       (= (+ (- |main____CPAchecker_TMP_0___0':142:165:172:341:465:977|)
                                               main____CPAchecker_TMP_0___0) 0)
                                       (= (+ (- |main____CPAchecker_TMP_0':141:162:169:338:462:974|)
                                               |havoc:3:58:961|) 0)
                                       (= (- |main__t':140:160:167:336:460:972|) 0)
                                       (= (+ (- |__tmp_383_0':139:163:170:339:463:975|)
                                               |havoc:3:58:961|) 0))
                                  (and (<= (+ (- |K:158:159:166:335:459:971|)
                                                1) 0) (= |havoc:3:58:961| 0)
                                         (= |havoc:3:58:961| 0)
                                         (<= (+ (- havoc) 3) 0)
                                         (= (+ |__VERIFIER_assert__cond___16':144:164:171:340:464:976|
                                                 -1) 0)
                                         (= (+ |__VERIFIER_assert__cond___15':143:161:168:337:461:973|
                                                 -1) 0)
                                         (= |main____CPAchecker_TMP_0':141:162:169:338:462:974| 0)
                                         (= |main____CPAchecker_TMP_0___0':142:165:172:341:465:977| 0)
                                         (= |__tmp_383_0':139:163:170:339:463:975| 0)
                                         (<= (+ |main__t':140:160:167:336:460:972|
                                                  (- havoc) 2) 0)
                                         (<= (+ (- |main__t':140:160:167:336:460:972|)
                                                  1) 0)))
                            (<= (- |K:158:159:166:335:459:971|) 0)
                            (= |__tmp_383_0':139:163:170:339:463:975| 0)
                            (= |main____CPAchecker_TMP_0':141:162:169:338:462:974| 0)
                            (<= (- |main__t':140:160:167:336:460:972|) 0)
                            (< (+ (- havoc) 1) 0)
                            (= |__tmp_383_0':139:163:170:339:463:975| 0)
                            (= |main____CPAchecker_TMP_0':141:162:169:338:462:974| 0)
                            (not (= (+ |main__t':140:160:167:336:460:972|
                                         (- havoc) 2) 0))
                            (not (= |havoc:9:59:138:334:342:466:978| 0))
                            (= (+ |__tmp_383_0':139:163:170:339:463:975|
                                    (- |phi___tmp_383_0:351:450:962|)) 0)
                            (= (+ |havoc:9:59:138:334:342:466:978|
                                    (- |phi___tmp_247_0:350:451:963|)) 0)
                            (= (+ |main__t':140:160:167:336:460:972|
                                    (- |phi_main__t:349:452:964|) 1) 0)
                            (= (+ |__tmp_383_0':139:163:170:339:463:975|
                                    (- |phi_main____CPAchecker_TMP_0:348:453:965|)) 0)
                            (= (+ (- |phi___VERIFIER_assert__cond___11:347:454:966|)
                                    1) 0)
                            (= (+ (ite (<= (+ (- havoc) 1) 0) 1 0)
                                    (- |phi___VERIFIER_assert__cond___12:346:455:967|)) 0)
                            (= (+ |havoc:9:59:138:334:342:466:978|
                                    (- |phi_main____CPAchecker_TMP_0___0:345:456:968|)) 0)
                            (= (+ |__VERIFIER_assert__cond___15':143:161:168:337:461:973|
                                    (- |phi___VERIFIER_assert__cond___15:344:457:969|)) 0)
                            (= (+ |__VERIFIER_assert__cond___16':144:164:171:340:464:976|
                                    (- |phi___VERIFIER_assert__cond___16:343:458:970|)) 0)))
               (not (= (ite (<= (- |phi_main__t:349:452:964|) 0) 1 0) 0))
               (not (= (ite (<= (+ |phi_main__t:349:452:964| (- havoc) 1) 0)
                            1 0) 0))
               (or (not (and (<= (- |K:313:314:323:891:979|) 0)
                               (<= |K:313:314:323:891:979| 0)))
                     (= (+ (- __VERIFIER_assert__cond___7)
                             |__VERIFIER_assert__cond___7':299:315:324:892:980|) 0))
               (or (not (<= (+ (- |K:313:314:323:891:979|) 1) 0))
                     (= (+ |__VERIFIER_assert__cond___7':299:315:324:892:980|
                             -1) 0))
               (or (not (and (<= (- |K:313:314:323:891:979|) 0)
                               (<= |K:313:314:323:891:979| 0)))
                     (= (+ (- __VERIFIER_assert__cond___8)
                             |__VERIFIER_assert__cond___8':300:316:325:893:981|) 0))
               (or (not (<= (+ (- |K:313:314:323:891:979|) 1) 0))
                     (= (+ |__VERIFIER_assert__cond___8':300:316:325:893:981|
                             -1) 0))
               (or (not (<= (- |K:313:314:323:891:979|) 0))
                     (<= (+ |main__t':140:317:326:894:982|
                              (* -2 |K:313:314:323:891:979|)
                              (- |phi_main__t:349:452:964|) -1) 0))
               (or (not (<= (- |K:313:314:323:891:979|) 0))
                     (<= (+ |main__t':140:317:326:894:982|
                              (* 2 |K:313:314:323:891:979|)
                              (- |phi_main__t:349:452:964|)
                              (- (* |K:313:314:323:891:979| havoc)) -1) 0))
               (or (not (<= (- |K:313:314:323:891:979|) 0))
                     (<= (+ (- |main__t':140:317:326:894:982|)
                              |K:313:314:323:891:979|
                              |phi_main__t:349:452:964| 1) 0))
               (or (and (= |K:313:314:323:891:979| 0)
                          (= (+ (- |main____CPAchecker_TMP_6':301:318:327:895:983|)
                                  main____CPAchecker_TMP_6) 0)
                          (= (+ __VERIFIER_assert__cond___8
                                  (- |__VERIFIER_assert__cond___8':300:316:325:893:981|)) 0)
                          (= (+ __VERIFIER_assert__cond___7
                                  (- |__VERIFIER_assert__cond___7':299:315:324:892:980|)) 0)
                          (= (+ (- |__VERIFIER_assert__cond___4':298:319:328:896:984|)
                                  __VERIFIER_assert__cond___4) 0)
                          (= (+ (- |__VERIFIER_assert__cond___3':297:320:329:897:985|)
                                  __VERIFIER_assert__cond___3) 0)
                          (= (+ (- |main____CPAchecker_TMP_4':296:321:330:898:986|)
                                  main____CPAchecker_TMP_4) 0)
                          (= (+ (- |main____CPAchecker_TMP_3':295:322:331:899:987|)
                                  main____CPAchecker_TMP_3) 0)
                          (= (+ (- |main__t':140:317:326:894:982|)
                                  |phi_main__t:349:452:964| 1) 0))
                     (and (<= (+ (- |K:313:314:323:891:979|) 1) 0)
                            (<= (+ |phi_main__t:349:452:964| (- havoc) 3) 0)
                            (<= (- |phi_main__t:349:452:964|) 0)
                            (= (+ |__VERIFIER_assert__cond___8':300:316:325:893:981|
                                    -1) 0)
                            (= (+ |__VERIFIER_assert__cond___7':299:315:324:892:980|
                                    -1) 0)
                            (<= (+ |main__t':140:317:326:894:982| (- havoc) 1) 0)
                            (<= (+ (- |main__t':140:317:326:894:982|) 2) 0)))
               (<= (- |K:313:314:323:891:979|) 0)
               (< (- |main__t':140:317:326:894:982|) 0) (< (+ (- havoc) 1) 0)
               (not (= (+ |main__t':140:317:326:894:982| (- havoc) 1) 0))
               (not (= |havoc:24:60:273:332:900:988| 0))
               (not (= |havoc:31:62:722:901:989| 0))
               (= (ite (<= (- |main__t':140:317:326:894:982|) 0) 1 0) 0)))
(check-sat)
